proyfinal/src/viki/013/experimentInOfficeAgust.take6.output/af1c3fee-170a-47bc-95f9-c307cd8192a1.als.out
Reading from standard input... Use '--help' for help.
============================[ Problem Statistics ]=============================
|                                                                             |
|  Number of variables:         87638                                         |
|  Number of clauses:          161767                                         |
|  Parse time:                   0.04 s                                       |
|                                                                             |
============================[ Search Statistics ]==============================
| Conflicts |          ORIGINAL         |          LEARNT          | Progress |
|           |    Vars  Clauses Literals |    Limit  Clauses Lit/Cl |          |
===============================================================================
|       100 |   63808   110729   275520 |    40600      100     12 | 27.191 % |
|       250 |   63808   110729   275520 |    44660      250     20 | 27.191 % |
|       475 |   63808   110729   275520 |    49126      475     36 | 27.191 % |
|       812 |   63808   110729   275520 |    54039      812     46 | 27.191 % |
|      1318 |   63808   110729   275520 |    59443     1318     54 | 27.191 % |
|      2077 |   63808   110729   275520 |    65387     2077     51 | 27.191 % |
|      3216 |   63802   110705   275460 |    71926     3214     87 | 27.198 % |
|      4924 |   63802   110682   275402 |    79119     4922     97 | 27.198 % |
|      7486 |   63802   110682   275402 |    87031     7484     95 | 27.198 % |
|     11330 |   58664    93448   233088 |    95734    10303     85 | 33.061 % |
|     17096 |   58441    92059   229787 |   105307    14321     75 | 33.315 % |
===============================================================================
restarts              : 69
conflicts             : 20026          (8290 /sec)
decisions             : 64867          (0.00 % random) (26853 /sec)
propagations          : 25320433       (10481830 /sec)
conflict literals     : 1400435        (45.37 % deleted)
Memory used           : 35.44 MB
CPU time              : 2.41565 s

UNSATISFIABLE
